333
408
67
83
57
69
584
1255
7825
1840
89
107
1053
55
910
126
360
388
323
1261
102
12613
86
765
3373
355
308
71
101
3798
303
449
57
317
831
410
2754
491
256
200
384
1186
1466
12687
783
1329
125
7737
139
113
53
635
0
2181
0
0
853
84
435
208
0
479
429
243
217
309
1238
60
211
199
2025
565
456
311
12893
108
559
0
76
618
165
2894
59
200
319
526
212
105
260
6961
182
1295
79
0
871
53
420
516
3789
395
